NAME          
ROWS
 N  OBJ
 L  c1
 L  c2
COLUMNS
    MARKER    'MARKER'                 'INTORG'
    x[1]      c1        71
    x[1]      c2        684
    x[1]      OBJ       -227
    x[2]      c1        374
    x[2]      c2        447
    x[2]      OBJ       -606
    x[3]      c1        123
    x[3]      c2        267
    x[3]      OBJ       -683
    x[4]      c1        639
    x[4]      c2        46
    x[4]      OBJ       -663
    x[5]      c1        516
    x[5]      c2        128
    x[5]      OBJ       -739
    x[6]      c1        644
    x[6]      c2        181
    x[6]      OBJ       -184
    x[7]      c1        469
    x[7]      c2        177
    x[7]      OBJ       -200
    x[8]      c1        210
    x[8]      c2        301
    x[8]      OBJ       -723
    x[9]      c1        297
    x[9]      c2        892
    x[9]      OBJ       -602
    x[10]     c1        576
    x[10]     c2        634
    x[10]     OBJ       -445
    x[11]     c1        568
    x[11]     c2        995
    x[11]     OBJ       -446
    x[12]     c1        688
    x[12]     c2        850
    x[12]     OBJ       -248
    x[13]     c1        594
    x[13]     c2        24
    x[13]     OBJ       -780
    x[14]     c1        618
    x[14]     c2        724
    x[14]     OBJ       -762
    x[15]     c1        543
    x[15]     c2        995
    x[15]     OBJ       -450
RHS
    rhs       c1        3465
    rhs       c2        3672
RANGES
BOUNDS
 BV bounds    x[1]
 BV bounds    x[2]
 BV bounds    x[3]
 BV bounds    x[4]
 BV bounds    x[5]
 BV bounds    x[6]
 BV bounds    x[7]
 BV bounds    x[8]
 BV bounds    x[9]
 BV bounds    x[10]
 BV bounds    x[11]
 BV bounds    x[12]
 BV bounds    x[13]
 BV bounds    x[14]
 BV bounds    x[15]
ENDATA
